
Gurobi 5.6.3 (mac64) logging started Thu Aug 28 00:08:02 2014


Gurobi 5.6.3 (mac64) logging started Thu Aug 28 16:32:20 2014


Gurobi 5.6.3 (mac64) logging started Fri Aug 29 14:09:26 2014


Gurobi 5.6.3 (mac64) logging started Fri Aug 29 14:52:49 2014


Gurobi 5.6.3 (mac64) logging started Fri Aug 29 14:52:56 2014


Gurobi 5.6.3 (mac64) logging started Fri Aug 29 14:53:36 2014


Gurobi 5.6.3 (mac64) logging started Fri Aug 29 14:53:46 2014


Gurobi 5.6.3 (mac64) logging started Fri Aug 29 14:57:43 2014


Gurobi 5.6.3 (mac64) logging started Fri Aug 29 15:16:03 2014


Gurobi 5.6.3 (mac64) logging started Fri Aug 29 15:19:35 2014


Gurobi 5.6.3 (mac64) logging started Fri Aug 29 15:19:43 2014


Gurobi 5.6.3 (mac64) logging started Fri Aug 29 15:20:09 2014


Gurobi 5.6.3 (mac64) logging started Fri Aug 29 16:47:11 2014


Gurobi 5.6.3 (mac64) logging started Tue Sep  2 11:09:23 2014


Gurobi 5.6.3 (mac64) logging started Tue Sep  2 11:11:03 2014


Gurobi 5.6.3 (mac64) logging started Tue Sep  2 11:12:09 2014


Gurobi 5.6.3 (mac64) logging started Tue Sep  2 11:17:36 2014


Gurobi 5.6.3 (mac64) logging started Tue Sep  2 11:25:22 2014


Gurobi 5.6.3 (mac64) logging started Tue Sep  2 11:28:00 2014


Gurobi 5.6.3 (mac64) logging started Tue Sep  2 11:34:09 2014


Gurobi 5.6.3 (mac64) logging started Tue Sep  2 11:36:26 2014


Gurobi 5.6.3 (mac64) logging started Tue Sep  2 11:38:42 2014


Gurobi 5.6.3 (mac64) logging started Tue Sep  2 11:39:10 2014


Gurobi 5.6.3 (mac64) logging started Tue Sep  2 11:41:25 2014


Gurobi 5.6.3 (mac64) logging started Tue Sep  2 11:42:11 2014


Gurobi 5.6.3 (mac64) logging started Tue Sep  2 11:42:18 2014


Gurobi 5.6.3 (mac64) logging started Tue Sep  2 11:43:18 2014


Gurobi 5.6.3 (mac64) logging started Tue Sep  2 11:47:26 2014


Gurobi 5.6.3 (mac64) logging started Tue Sep  2 11:55:06 2014


Gurobi 5.6.3 (mac64) logging started Tue Sep  2 12:00:46 2014


Gurobi 5.6.3 (mac64) logging started Tue Sep  2 12:00:53 2014


Gurobi 5.6.3 (mac64) logging started Tue Sep  2 14:11:18 2014


Gurobi 5.6.3 (mac64) logging started Tue Sep  2 14:12:02 2014


Gurobi 5.6.3 (mac64) logging started Tue Sep  2 14:31:05 2014


Gurobi 5.6.3 (mac64) logging started Tue Sep  2 14:31:29 2014


Gurobi 5.6.3 (mac64) logging started Wed Sep 10 16:28:38 2014


Gurobi 5.6.3 (mac64) logging started Thu Sep 11 15:29:32 2014


Gurobi 5.6.3 (mac64) logging started Thu Sep 11 15:39:00 2014


Gurobi 5.6.3 (mac64) logging started Thu Sep 11 16:03:07 2014


Gurobi 5.6.3 (mac64) logging started Fri Sep 12 16:49:03 2014


Gurobi 5.6.3 (mac64) logging started Fri Sep 12 16:55:18 2014


Gurobi 5.6.3 (mac64) logging started Fri Sep 12 16:55:39 2014


Gurobi 5.6.3 (mac64) logging started Fri Sep 12 16:56:32 2014


Gurobi 5.6.3 (mac64) logging started Sun Sep 14 12:54:49 2014


Gurobi 5.6.3 (mac64) logging started Mon Sep 15 16:28:53 2014


Gurobi 5.6.3 (mac64) logging started Tue Sep 16 15:32:33 2014


Gurobi 5.6.3 (mac64) logging started Tue Sep 16 15:44:40 2014


Gurobi 5.6.3 (mac64) logging started Tue Sep 16 15:44:57 2014


Gurobi 5.6.3 (mac64) logging started Tue Sep 16 15:45:26 2014


Gurobi 5.6.3 (mac64) logging started Tue Sep 16 15:45:48 2014


Gurobi 5.6.3 (mac64) logging started Tue Sep 16 15:47:19 2014


Gurobi 5.6.3 (mac64) logging started Tue Sep 16 15:48:34 2014


Gurobi 5.6.3 (mac64) logging started Tue Sep 16 15:49:47 2014


Gurobi 5.6.3 (mac64) logging started Tue Sep 16 15:50:48 2014


Gurobi 5.6.3 (mac64) logging started Tue Sep 16 15:53:53 2014


Gurobi 5.6.3 (mac64) logging started Tue Sep 16 15:54:59 2014


Gurobi 5.6.3 (mac64) logging started Tue Sep 16 15:55:07 2014


Gurobi 5.6.3 (mac64) logging started Tue Sep 16 18:05:51 2014


Gurobi 5.6.3 (mac64) logging started Fri Sep 19 13:41:28 2014


Gurobi 5.6.3 (mac64) logging started Fri Sep 19 13:42:27 2014


Gurobi 5.6.3 (mac64) logging started Fri Sep 19 13:46:29 2014


Gurobi 5.6.3 (mac64) logging started Fri Sep 19 13:47:31 2014


Gurobi 5.6.3 (mac64) logging started Fri Sep 19 13:48:27 2014


Gurobi 5.6.3 (mac64) logging started Fri Sep 19 14:00:54 2014


Gurobi 5.6.3 (mac64) logging started Fri Sep 19 14:05:55 2014


Gurobi 5.6.3 (mac64) logging started Fri Sep 19 14:06:27 2014


Gurobi 5.6.3 (mac64) logging started Fri Sep 19 14:06:37 2014


Gurobi 5.6.3 (mac64) logging started Fri Sep 19 14:07:32 2014


Gurobi 5.6.3 (mac64) logging started Fri Sep 19 14:08:55 2014


Gurobi 5.6.3 (mac64) logging started Fri Sep 19 14:09:13 2014


Gurobi 5.6.3 (mac64) logging started Fri Sep 19 14:13:21 2014


Gurobi 5.6.3 (mac64) logging started Fri Sep 19 14:15:57 2014


Gurobi 5.6.3 (mac64) logging started Fri Sep 19 14:16:08 2014


Gurobi 5.6.3 (mac64) logging started Fri Sep 19 16:15:24 2014


Gurobi 5.6.3 (mac64) logging started Fri Sep 19 16:17:03 2014


Gurobi 5.6.3 (mac64) logging started Sat Sep 20 13:15:55 2014


Gurobi 5.6.3 (mac64) logging started Sat Sep 20 14:19:45 2014


Gurobi 5.6.3 (mac64) logging started Sat Sep 20 14:20:39 2014


Gurobi 5.6.3 (mac64) logging started Sat Sep 20 14:28:13 2014


Gurobi 5.6.3 (mac64) logging started Sat Sep 20 14:28:57 2014


Gurobi 5.6.3 (mac64) logging started Sat Sep 20 14:30:11 2014


Gurobi 5.6.3 (mac64) logging started Sat Sep 20 14:32:10 2014


Gurobi 5.6.3 (mac64) logging started Sat Sep 20 14:46:01 2014


Gurobi 5.6.3 (mac64) logging started Sat Sep 20 16:19:34 2014


Gurobi 5.6.3 (mac64) logging started Sat Sep 20 16:32:49 2014


Gurobi 5.6.3 (mac64) logging started Sat Sep 20 16:35:17 2014


Gurobi 5.6.3 (mac64) logging started Sat Sep 20 16:43:19 2014


Gurobi 5.6.3 (mac64) logging started Sat Sep 20 16:43:56 2014


Gurobi 5.6.3 (mac64) logging started Sat Sep 20 16:44:48 2014


Gurobi 5.6.3 (mac64) logging started Sat Sep 20 16:47:30 2014


Gurobi 5.6.3 (mac64) logging started Sat Sep 20 16:48:28 2014


Gurobi 5.6.3 (mac64) logging started Sat Sep 20 16:52:03 2014


Gurobi 5.6.3 (mac64) logging started Sat Sep 20 16:52:10 2014


Gurobi 5.6.3 (mac64) logging started Sat Sep 20 17:01:25 2014


Gurobi 5.6.3 (mac64) logging started Sat Sep 20 17:06:13 2014


Gurobi 5.6.3 (mac64) logging started Sat Sep 20 17:06:55 2014


Gurobi 5.6.3 (mac64) logging started Sat Sep 20 17:07:22 2014


Gurobi 5.6.3 (mac64) logging started Sat Sep 20 17:08:15 2014


Gurobi 5.6.3 (mac64) logging started Sat Sep 20 17:09:42 2014


Gurobi 5.6.3 (mac64) logging started Sat Sep 20 17:10:18 2014


Gurobi 5.6.3 (mac64) logging started Sat Sep 20 17:10:43 2014


Gurobi 5.6.3 (mac64) logging started Sat Sep 20 17:12:02 2014


Gurobi 5.6.3 (mac64) logging started Sat Sep 20 17:13:58 2014


Gurobi 5.6.3 (mac64) logging started Sat Sep 20 17:14:47 2014


Gurobi 5.6.3 (mac64) logging started Sat Sep 20 17:24:09 2014


Gurobi 5.6.3 (mac64) logging started Sat Sep 20 17:24:47 2014


Gurobi 5.6.3 (mac64) logging started Sat Sep 20 17:25:13 2014


Gurobi 5.6.3 (mac64) logging started Sat Sep 20 17:26:18 2014


Gurobi 5.6.3 (mac64) logging started Sat Sep 20 17:27:21 2014


Gurobi 5.6.3 (mac64) logging started Sat Sep 20 17:27:24 2014


Gurobi 5.6.3 (mac64) logging started Sat Sep 20 17:27:47 2014


Gurobi 5.6.3 (mac64) logging started Sat Sep 20 17:29:58 2014


Gurobi 5.6.3 (mac64) logging started Sat Sep 20 17:30:09 2014


Gurobi 5.6.3 (mac64) logging started Sat Sep 20 17:30:44 2014


Gurobi 5.6.3 (mac64) logging started Sat Sep 20 17:31:21 2014


Gurobi 5.6.3 (mac64) logging started Sat Sep 20 17:31:48 2014


Gurobi 5.6.3 (mac64) logging started Sat Sep 20 17:32:14 2014


Gurobi 5.6.3 (mac64) logging started Sat Sep 20 17:32:44 2014


Gurobi 5.6.3 (mac64) logging started Sat Sep 20 17:34:07 2014


Gurobi 5.6.3 (mac64) logging started Sat Sep 20 17:34:20 2014


Gurobi 5.6.3 (mac64) logging started Sat Sep 20 17:34:37 2014


Gurobi 5.6.3 (mac64) logging started Sat Sep 20 17:34:43 2014


Gurobi 5.6.3 (mac64) logging started Sat Sep 20 17:35:08 2014


Gurobi 5.6.3 (mac64) logging started Sat Sep 20 17:35:16 2014


Gurobi 5.6.3 (mac64) logging started Sat Sep 20 17:36:08 2014


Gurobi 5.6.3 (mac64) logging started Sat Sep 20 17:36:17 2014


Gurobi 5.6.3 (mac64) logging started Sat Sep 20 17:36:29 2014


Gurobi 5.6.3 (mac64) logging started Sat Sep 20 17:37:12 2014


Gurobi 5.6.3 (mac64) logging started Sat Sep 20 17:38:16 2014


Gurobi 5.6.3 (mac64) logging started Sat Sep 20 17:38:46 2014


Gurobi 5.6.3 (mac64) logging started Sat Sep 20 17:39:13 2014


Gurobi 5.6.3 (mac64) logging started Sat Sep 20 17:39:58 2014


Gurobi 5.6.3 (mac64) logging started Sat Sep 20 17:40:21 2014


Gurobi 5.6.3 (mac64) logging started Sat Sep 20 17:41:21 2014


Gurobi 5.6.3 (mac64) logging started Sat Sep 20 17:42:16 2014


Gurobi 5.6.3 (mac64) logging started Sat Sep 20 17:43:13 2014


Gurobi 5.6.3 (mac64) logging started Sat Sep 20 17:43:44 2014


Gurobi 5.6.3 (mac64) logging started Sat Sep 20 17:44:50 2014


Gurobi 5.6.3 (mac64) logging started Sat Sep 20 17:46:37 2014


Gurobi 5.6.3 (mac64) logging started Sat Sep 20 17:47:14 2014


Gurobi 5.6.3 (mac64) logging started Sat Sep 20 17:49:10 2014


Gurobi 5.6.3 (mac64) logging started Sat Sep 20 17:50:40 2014


Gurobi 5.6.3 (mac64) logging started Sat Sep 20 17:52:10 2014


Gurobi 5.6.3 (mac64) logging started Sat Sep 20 17:52:51 2014


Gurobi 5.6.3 (mac64) logging started Sat Sep 20 17:53:30 2014


Gurobi 5.6.3 (mac64) logging started Sat Sep 20 17:57:45 2014


Gurobi 5.6.3 (mac64) logging started Sat Sep 20 17:57:49 2014


Gurobi 5.6.3 (mac64) logging started Sat Sep 20 17:58:26 2014


Gurobi 5.6.3 (mac64) logging started Sat Sep 20 18:01:32 2014


Gurobi 5.6.3 (mac64) logging started Sat Sep 20 18:02:06 2014


Gurobi 5.6.3 (mac64) logging started Sat Sep 20 18:05:57 2014


Gurobi 5.6.3 (mac64) logging started Sat Sep 20 18:06:17 2014


Gurobi 5.6.3 (mac64) logging started Sat Sep 20 18:06:24 2014


Gurobi 5.6.3 (mac64) logging started Sat Sep 20 18:06:42 2014


Gurobi 5.6.3 (mac64) logging started Sat Sep 20 18:07:11 2014


Gurobi 5.6.3 (mac64) logging started Sat Sep 20 18:07:38 2014


Gurobi 5.6.3 (mac64) logging started Sat Sep 20 18:08:21 2014


Gurobi 5.6.3 (mac64) logging started Sat Sep 20 18:08:41 2014


Gurobi 5.6.3 (mac64) logging started Sat Sep 20 18:10:13 2014


Gurobi 5.6.3 (mac64) logging started Sat Sep 20 18:10:18 2014


Gurobi 5.6.3 (mac64) logging started Sat Sep 20 18:10:26 2014


Gurobi 5.6.3 (mac64) logging started Sat Sep 20 18:10:30 2014


Gurobi 5.6.3 (mac64) logging started Sat Sep 20 18:11:06 2014


Gurobi 5.6.3 (mac64) logging started Mon Sep 22 14:27:10 2014


Gurobi 5.6.3 (mac64) logging started Mon Sep 22 14:30:51 2014


Gurobi 5.6.3 (mac64) logging started Mon Sep 22 14:31:52 2014


Gurobi 5.6.3 (mac64) logging started Mon Sep 22 14:37:56 2014


Gurobi 5.6.3 (mac64) logging started Mon Sep 22 14:39:47 2014


Gurobi 5.6.3 (mac64) logging started Mon Sep 22 14:40:01 2014


Gurobi 5.6.3 (mac64) logging started Mon Sep 22 14:41:46 2014


Gurobi 5.6.3 (mac64) logging started Mon Sep 22 14:43:14 2014


Gurobi 5.6.3 (mac64) logging started Mon Sep 22 14:48:41 2014


Gurobi 5.6.3 (mac64) logging started Mon Sep 22 14:49:29 2014


Gurobi 5.6.3 (mac64) logging started Mon Sep 22 14:51:10 2014


Gurobi 5.6.3 (mac64) logging started Mon Sep 22 14:51:34 2014


Gurobi 5.6.3 (mac64) logging started Mon Sep 22 14:53:56 2014


Gurobi 5.6.3 (mac64) logging started Mon Sep 22 15:07:47 2014


Gurobi 5.6.3 (mac64) logging started Mon Sep 22 15:08:05 2014


Gurobi 5.6.3 (mac64) logging started Mon Sep 22 15:08:44 2014


Gurobi 5.6.3 (mac64) logging started Mon Sep 22 15:08:46 2014


Gurobi 5.6.3 (mac64) logging started Mon Sep 22 15:08:55 2014


Gurobi 5.6.3 (mac64) logging started Mon Sep 22 15:09:39 2014


Gurobi 5.6.3 (mac64) logging started Mon Sep 22 15:09:53 2014


Gurobi 5.6.3 (mac64) logging started Mon Sep 22 15:11:34 2014


Gurobi 5.6.3 (mac64) logging started Mon Sep 22 15:11:46 2014


Gurobi 5.6.3 (mac64) logging started Mon Sep 22 15:12:42 2014


Gurobi 5.6.3 (mac64) logging started Mon Sep 22 15:16:17 2014


Gurobi 5.6.3 (mac64) logging started Mon Sep 22 15:16:34 2014


Gurobi 5.6.3 (mac64) logging started Mon Sep 22 15:18:44 2014


Gurobi 5.6.3 (mac64) logging started Mon Sep 22 15:19:54 2014


Gurobi 5.6.3 (mac64) logging started Mon Sep 22 15:21:08 2014


Gurobi 5.6.3 (mac64) logging started Mon Sep 22 15:22:40 2014


Gurobi 5.6.3 (mac64) logging started Mon Sep 22 15:22:55 2014


Gurobi 5.6.3 (mac64) logging started Mon Sep 22 15:39:21 2014


Gurobi 5.6.3 (mac64) logging started Mon Sep 22 15:41:17 2014


Gurobi 5.6.3 (mac64) logging started Mon Sep 22 15:41:22 2014


Gurobi 5.6.3 (mac64) logging started Mon Sep 22 15:48:34 2014


Gurobi 5.6.3 (mac64) logging started Mon Sep 22 15:48:49 2014


Gurobi 5.6.3 (mac64) logging started Mon Sep 22 16:23:22 2014


Gurobi 5.6.3 (mac64) logging started Mon Sep 22 17:23:04 2014


Gurobi 5.6.3 (mac64) logging started Mon Sep 22 17:23:25 2014


Gurobi 5.6.3 (mac64) logging started Mon Sep 22 17:24:22 2014


Gurobi 5.6.3 (mac64) logging started Mon Sep 22 17:24:26 2014


Gurobi 5.6.3 (mac64) logging started Mon Sep 22 17:24:36 2014


Gurobi 5.6.3 (mac64) logging started Mon Sep 22 17:25:49 2014


Gurobi 5.6.3 (mac64) logging started Mon Sep 22 18:15:49 2014


Gurobi 5.6.3 (mac64) logging started Mon Sep 22 18:16:44 2014


Gurobi 5.6.3 (mac64) logging started Wed Sep 24 22:38:12 2014


Gurobi 5.6.3 (mac64) logging started Thu Sep 25 13:52:36 2014


Gurobi 5.6.3 (mac64) logging started Thu Sep 25 14:10:36 2014


Gurobi 5.6.3 (mac64) logging started Thu Sep 25 14:16:03 2014


Gurobi 5.6.3 (mac64) logging started Thu Sep 25 14:16:16 2014


Gurobi 5.6.3 (mac64) logging started Thu Sep 25 14:16:21 2014


Gurobi 5.6.3 (mac64) logging started Thu Sep 25 14:17:24 2014


Gurobi 5.6.3 (mac64) logging started Thu Sep 25 14:19:46 2014


Gurobi 5.6.3 (mac64) logging started Thu Sep 25 14:26:20 2014


Gurobi 5.6.3 (mac64) logging started Thu Sep 25 14:27:35 2014


Gurobi 5.6.3 (mac64) logging started Thu Sep 25 14:27:53 2014


Gurobi 5.6.3 (mac64) logging started Thu Sep 25 14:29:18 2014


Gurobi 5.6.3 (mac64) logging started Thu Sep 25 14:53:13 2014


Gurobi 5.6.3 (mac64) logging started Thu Sep 25 14:54:05 2014


Gurobi 5.6.3 (mac64) logging started Thu Sep 25 14:54:12 2014


Gurobi 5.6.3 (mac64) logging started Thu Sep 25 14:54:41 2014


Gurobi 5.6.3 (mac64) logging started Thu Sep 25 14:55:02 2014


Gurobi 5.6.3 (mac64) logging started Thu Sep 25 14:55:27 2014


Gurobi 5.6.3 (mac64) logging started Thu Sep 25 14:56:10 2014


Gurobi 5.6.3 (mac64) logging started Thu Sep 25 14:56:33 2014


Gurobi 5.6.3 (mac64) logging started Thu Sep 25 14:57:03 2014


Gurobi 5.6.3 (mac64) logging started Thu Sep 25 14:57:41 2014


Gurobi 5.6.3 (mac64) logging started Thu Sep 25 14:58:36 2014


Gurobi 5.6.3 (mac64) logging started Thu Sep 25 14:59:12 2014


Gurobi 5.6.3 (mac64) logging started Thu Sep 25 14:59:32 2014


Gurobi 5.6.3 (mac64) logging started Thu Sep 25 14:59:50 2014


Gurobi 5.6.3 (mac64) logging started Thu Sep 25 15:00:54 2014


Gurobi 5.6.3 (mac64) logging started Thu Sep 25 15:01:15 2014


Gurobi 5.6.3 (mac64) logging started Thu Sep 25 15:01:34 2014


Gurobi 5.6.3 (mac64) logging started Thu Sep 25 15:02:20 2014


Gurobi 5.6.3 (mac64) logging started Thu Sep 25 15:02:34 2014


Gurobi 5.6.3 (mac64) logging started Thu Sep 25 15:02:48 2014


Gurobi 5.6.3 (mac64) logging started Thu Sep 25 15:04:18 2014


Gurobi 5.6.3 (mac64) logging started Thu Sep 25 15:04:21 2014


Gurobi 5.6.3 (mac64) logging started Thu Sep 25 15:05:22 2014


Gurobi 5.6.3 (mac64) logging started Thu Sep 25 15:06:16 2014


Gurobi 5.6.3 (mac64) logging started Thu Sep 25 15:06:57 2014


Gurobi 5.6.3 (mac64) logging started Thu Sep 25 15:07:17 2014


Gurobi 5.6.3 (mac64) logging started Thu Sep 25 15:07:33 2014


Gurobi 5.6.3 (mac64) logging started Thu Sep 25 15:07:42 2014


Gurobi 5.6.3 (mac64) logging started Thu Sep 25 15:10:30 2014


Gurobi 5.6.3 (mac64) logging started Thu Sep 25 15:11:47 2014


Gurobi 5.6.3 (mac64) logging started Thu Sep 25 15:12:30 2014


Gurobi 5.6.3 (mac64) logging started Thu Sep 25 15:13:22 2014


Gurobi 5.6.3 (mac64) logging started Thu Sep 25 15:29:01 2014


Gurobi 5.6.3 (mac64) logging started Thu Sep 25 15:32:18 2014


Gurobi 5.6.3 (mac64) logging started Thu Sep 25 16:14:43 2014


Gurobi 5.6.3 (mac64) logging started Thu Sep 25 16:16:03 2014


Gurobi 5.6.3 (mac64) logging started Thu Sep 25 16:19:31 2014


Gurobi 5.6.3 (mac64) logging started Thu Sep 25 16:31:50 2014


Gurobi 5.6.3 (mac64) logging started Thu Sep 25 16:32:13 2014


Gurobi 5.6.3 (mac64) logging started Thu Sep 25 16:32:36 2014


Gurobi 5.6.3 (mac64) logging started Thu Sep 25 16:40:46 2014


Gurobi 5.6.3 (mac64) logging started Thu Sep 25 16:41:47 2014


Gurobi 5.6.3 (mac64) logging started Thu Sep 25 16:45:38 2014


Gurobi 5.6.3 (mac64) logging started Thu Sep 25 16:46:28 2014


Gurobi 5.6.3 (mac64) logging started Thu Sep 25 16:46:48 2014


Gurobi 5.6.3 (mac64) logging started Thu Sep 25 16:52:08 2014


Gurobi 5.6.3 (mac64) logging started Thu Sep 25 16:53:17 2014


Gurobi 5.6.3 (mac64) logging started Thu Sep 25 16:54:11 2014


Gurobi 5.6.3 (mac64) logging started Thu Sep 25 16:54:13 2014


Gurobi 5.6.3 (mac64) logging started Thu Sep 25 16:54:33 2014


Gurobi 5.6.3 (mac64) logging started Thu Sep 25 16:57:49 2014


Gurobi 5.6.3 (mac64) logging started Thu Sep 25 16:58:04 2014


Gurobi 5.6.3 (mac64) logging started Thu Sep 25 16:59:34 2014


Gurobi 5.6.3 (mac64) logging started Thu Sep 25 17:00:05 2014


Gurobi 5.6.3 (mac64) logging started Thu Sep 25 17:04:13 2014


Gurobi 5.6.3 (mac64) logging started Thu Sep 25 17:04:32 2014


Gurobi 5.6.3 (mac64) logging started Thu Sep 25 17:06:06 2014


Gurobi 5.6.3 (mac64) logging started Thu Sep 25 17:07:36 2014


Gurobi 5.6.3 (mac64) logging started Thu Sep 25 17:08:17 2014


Gurobi 5.6.3 (mac64) logging started Thu Sep 25 17:13:00 2014


Gurobi 5.6.3 (mac64) logging started Thu Sep 25 17:14:34 2014


Gurobi 5.6.3 (mac64) logging started Thu Sep 25 17:15:12 2014


Gurobi 5.6.3 (mac64) logging started Thu Sep 25 17:15:20 2014


Gurobi 5.6.3 (mac64) logging started Thu Sep 25 17:50:19 2014


Gurobi 5.6.3 (mac64) logging started Thu Sep 25 17:53:04 2014


Gurobi 5.6.3 (mac64) logging started Thu Sep 25 17:54:51 2014


Gurobi 5.6.3 (mac64) logging started Thu Sep 25 17:55:08 2014


Gurobi 5.6.3 (mac64) logging started Thu Sep 25 17:57:08 2014


Gurobi 5.6.3 (mac64) logging started Thu Sep 25 17:57:55 2014


Gurobi 5.6.3 (mac64) logging started Thu Sep 25 18:00:38 2014


Gurobi 5.6.3 (mac64) logging started Wed Oct  8 11:01:53 2014


Gurobi 5.6.3 (mac64) logging started Wed Oct  8 14:44:39 2014


Gurobi 5.6.3 (mac64) logging started Wed Oct  8 14:58:30 2014


Gurobi 5.6.3 (mac64) logging started Wed Oct  8 15:00:30 2014


Gurobi 5.6.3 (mac64) logging started Wed Oct  8 15:02:42 2014


Gurobi 5.6.3 (mac64) logging started Wed Oct  8 15:02:56 2014


Gurobi 5.6.3 (mac64) logging started Wed Oct  8 16:20:12 2014


Gurobi 5.6.3 (mac64) logging started Wed Oct  8 16:38:32 2014


Gurobi 5.6.3 (mac64) logging started Wed Oct  8 16:39:09 2014


Gurobi 5.6.3 (mac64) logging started Wed Oct  8 16:39:36 2014


Gurobi 5.6.3 (mac64) logging started Wed Oct  8 16:41:13 2014


Gurobi 5.6.3 (mac64) logging started Wed Oct  8 16:50:32 2014


Gurobi 5.6.3 (mac64) logging started Sat Oct 11 14:32:12 2014


Gurobi 5.6.3 (mac64) logging started Mon Oct 13 18:12:27 2014


Gurobi 5.6.3 (mac64) logging started Tue Oct 14 14:45:36 2014


Gurobi 5.6.3 (mac64) logging started Wed Oct 15 09:54:54 2014


Gurobi 5.6.3 (mac64) logging started Wed Oct 15 11:22:31 2014


Gurobi 5.6.3 (mac64) logging started Wed Oct 15 11:22:39 2014


Gurobi 5.6.3 (mac64) logging started Wed Oct 15 11:24:33 2014


Gurobi 5.6.3 (mac64) logging started Wed Oct 15 11:24:40 2014


Gurobi 5.6.3 (mac64) logging started Wed Oct 15 15:01:15 2014


Gurobi 5.6.3 (mac64) logging started Wed Oct 15 15:32:35 2014


Gurobi 5.6.3 (mac64) logging started Wed Oct 15 15:33:05 2014


Gurobi 5.6.3 (mac64) logging started Wed Oct 15 15:34:58 2014


Gurobi 5.6.3 (mac64) logging started Wed Oct 15 15:36:04 2014


Gurobi 5.6.3 (mac64) logging started Wed Oct 15 15:36:30 2014


Gurobi 5.6.3 (mac64) logging started Wed Oct 15 15:38:36 2014


Gurobi 5.6.3 (mac64) logging started Wed Oct 15 15:41:35 2014


Gurobi 5.6.3 (mac64) logging started Wed Oct 15 15:42:29 2014


Gurobi 5.6.3 (mac64) logging started Wed Oct 15 15:43:49 2014


Gurobi 5.6.3 (mac64) logging started Wed Oct 15 15:46:58 2014


Gurobi 5.6.3 (mac64) logging started Wed Oct 15 15:52:19 2014


Gurobi 5.6.3 (mac64) logging started Wed Oct 15 17:48:41 2014


Gurobi 5.6.3 (mac64) logging started Thu Oct 16 15:19:31 2014


Gurobi 5.6.3 (mac64) logging started Thu Oct 16 15:23:21 2014


Gurobi 5.6.3 (mac64) logging started Thu Oct 16 15:23:27 2014


Gurobi 5.6.3 (mac64) logging started Thu Oct 16 15:27:27 2014


Gurobi 5.6.3 (mac64) logging started Thu Oct 16 15:29:27 2014


Gurobi 5.6.3 (mac64) logging started Thu Oct 16 15:29:40 2014


Gurobi 5.6.3 (mac64) logging started Thu Oct 16 15:29:52 2014


Gurobi 5.6.3 (mac64) logging started Thu Oct 16 15:30:46 2014


Gurobi 5.6.3 (mac64) logging started Thu Oct 16 15:30:50 2014


Gurobi 5.6.3 (mac64) logging started Fri Oct 17 10:11:08 2014


Gurobi 5.6.3 (mac64) logging started Fri Oct 17 10:43:21 2014


Gurobi 5.6.3 (mac64) logging started Fri Oct 17 14:42:26 2014


Gurobi 5.6.3 (mac64) logging started Fri Oct 17 14:43:32 2014


Gurobi 5.6.3 (mac64) logging started Fri Oct 17 15:23:56 2014


Gurobi 5.6.3 (mac64) logging started Tue Oct 21 10:49:49 2014


Gurobi 5.6.3 (mac64) logging started Tue Oct 21 10:50:25 2014


Gurobi 5.6.3 (mac64) logging started Tue Oct 21 10:51:11 2014


Gurobi 5.6.3 (mac64) logging started Tue Oct 21 11:46:22 2014


Gurobi 5.6.3 (mac64) logging started Tue Oct 21 11:47:11 2014


Gurobi 5.6.3 (mac64) logging started Wed Oct 22 08:42:37 2014


Gurobi 5.6.3 (mac64) logging started Wed Oct 22 08:44:54 2014


Gurobi 5.6.3 (mac64) logging started Wed Oct 22 08:48:00 2014


Gurobi 5.6.3 (mac64) logging started Wed Oct 22 08:48:27 2014


Gurobi 5.6.3 (mac64) logging started Wed Oct 22 08:50:21 2014


Gurobi 5.6.3 (mac64) logging started Wed Oct 22 08:50:53 2014


Gurobi 5.6.3 (mac64) logging started Wed Oct 22 14:57:20 2014


Gurobi 5.6.3 (mac64) logging started Wed Oct 22 14:57:30 2014


Gurobi 5.6.3 (mac64) logging started Wed Oct 22 14:58:57 2014


Gurobi 5.6.3 (mac64) logging started Wed Oct 22 15:02:33 2014


Gurobi 5.6.3 (mac64) logging started Wed Oct 22 15:04:08 2014


Gurobi 5.6.3 (mac64) logging started Wed Oct 22 15:04:24 2014


Gurobi 5.6.3 (mac64) logging started Wed Oct 22 15:06:46 2014


Gurobi 5.6.3 (mac64) logging started Wed Oct 22 15:07:45 2014


Gurobi 5.6.3 (mac64) logging started Wed Oct 22 15:07:57 2014


Gurobi 5.6.3 (mac64) logging started Wed Oct 22 21:21:43 2014


Gurobi 5.6.3 (mac64) logging started Wed Oct 22 21:34:25 2014


Gurobi 5.6.3 (mac64) logging started Wed Oct 22 21:49:18 2014


Gurobi 5.6.3 (mac64) logging started Thu Oct 23 15:11:21 2014


Gurobi 5.6.3 (mac64) logging started Thu Oct 23 16:47:19 2014


Gurobi 5.6.3 (mac64) logging started Thu Oct 23 16:51:19 2014


Gurobi 5.6.3 (mac64) logging started Thu Oct 23 16:51:39 2014


Gurobi 5.6.3 (mac64) logging started Thu Oct 23 16:52:27 2014


Gurobi 5.6.3 (mac64) logging started Thu Oct 23 16:54:27 2014


Gurobi 5.6.3 (mac64) logging started Thu Oct 23 16:54:31 2014


Gurobi 5.6.3 (mac64) logging started Fri Oct 24 11:58:50 2014


Gurobi 5.6.3 (mac64) logging started Sat Oct 25 00:47:05 2014


Gurobi 5.6.3 (mac64) logging started Sat Oct 25 00:49:11 2014


Gurobi 5.6.3 (mac64) logging started Sun Oct 26 19:14:57 2014


Gurobi 5.6.3 (mac64) logging started Sun Oct 26 19:15:12 2014


Gurobi 5.6.3 (mac64) logging started Sun Oct 26 19:51:48 2014


Gurobi 5.6.3 (mac64) logging started Sun Oct 26 19:55:01 2014


Gurobi 5.6.3 (mac64) logging started Sun Oct 26 19:59:08 2014


Gurobi 5.6.3 (mac64) logging started Tue Oct 28 09:59:04 2014


Gurobi 5.6.3 (mac64) logging started Tue Oct 28 10:02:13 2014


Gurobi 5.6.3 (mac64) logging started Tue Oct 28 10:02:20 2014


Gurobi 5.6.3 (mac64) logging started Tue Oct 28 10:02:35 2014


Gurobi 5.6.3 (mac64) logging started Tue Oct 28 10:03:57 2014


Gurobi 5.6.3 (mac64) logging started Tue Oct 28 14:41:39 2014


Gurobi 5.6.3 (mac64) logging started Tue Oct 28 14:48:15 2014


Gurobi 5.6.3 (mac64) logging started Tue Oct 28 14:48:45 2014


Gurobi 5.6.3 (mac64) logging started Tue Oct 28 14:49:09 2014


Gurobi 5.6.3 (mac64) logging started Tue Oct 28 15:09:48 2014


Gurobi 5.6.3 (mac64) logging started Tue Oct 28 15:10:16 2014


Gurobi 5.6.3 (mac64) logging started Tue Oct 28 15:10:30 2014


Gurobi 5.6.3 (mac64) logging started Tue Oct 28 15:11:27 2014


Gurobi 5.6.3 (mac64) logging started Tue Oct 28 15:12:41 2014


Gurobi 5.6.3 (mac64) logging started Tue Oct 28 15:13:08 2014


Gurobi 5.6.3 (mac64) logging started Tue Oct 28 15:13:35 2014


Gurobi 5.6.3 (mac64) logging started Tue Oct 28 15:27:16 2014


Gurobi 5.6.3 (mac64) logging started Wed Oct 29 15:42:04 2014


Gurobi 5.6.3 (mac64) logging started Wed Oct 29 15:42:49 2014


Gurobi 5.6.3 (mac64) logging started Wed Oct 29 15:45:18 2014


Gurobi 5.6.3 (mac64) logging started Wed Oct 29 15:46:00 2014


Gurobi 5.6.3 (mac64) logging started Thu Oct 30 15:06:07 2014


Gurobi 5.6.3 (mac64) logging started Thu Oct 30 15:07:28 2014


Gurobi 5.6.3 (mac64) logging started Thu Oct 30 15:15:01 2014


Gurobi 5.6.3 (mac64) logging started Thu Oct 30 15:16:29 2014


Gurobi 5.6.3 (mac64) logging started Thu Oct 30 15:16:55 2014


Gurobi 5.6.3 (mac64) logging started Thu Oct 30 15:17:10 2014


Gurobi 5.6.3 (mac64) logging started Thu Oct 30 15:17:32 2014


Gurobi 5.6.3 (mac64) logging started Thu Oct 30 15:17:48 2014


Gurobi 5.6.3 (mac64) logging started Thu Oct 30 15:18:38 2014


Gurobi 5.6.3 (mac64) logging started Thu Oct 30 15:18:55 2014


Gurobi 5.6.3 (mac64) logging started Thu Oct 30 15:19:32 2014


Gurobi 5.6.3 (mac64) logging started Thu Oct 30 15:19:46 2014


Gurobi 5.6.3 (mac64) logging started Thu Oct 30 15:20:08 2014


Gurobi 5.6.3 (mac64) logging started Thu Oct 30 15:21:08 2014


Gurobi 5.6.3 (mac64) logging started Thu Oct 30 15:21:10 2014


Gurobi 5.6.3 (mac64) logging started Thu Oct 30 15:22:13 2014


Gurobi 5.6.3 (mac64) logging started Thu Oct 30 15:22:16 2014


Gurobi 5.6.3 (mac64) logging started Thu Oct 30 15:22:22 2014


Gurobi 5.6.3 (mac64) logging started Thu Oct 30 15:23:41 2014


Gurobi 5.6.3 (mac64) logging started Thu Oct 30 15:24:23 2014


Gurobi 5.6.3 (mac64) logging started Thu Oct 30 15:27:08 2014


Gurobi 5.6.3 (mac64) logging started Thu Oct 30 15:29:03 2014


Gurobi 5.6.3 (mac64) logging started Thu Oct 30 15:29:58 2014

